param n := 60;
param c := 1000;
param : V : p w :=
   0	  85	 480
   1	  64	 256
   2	  87	 264
   3	  44	 373
   4	  29	 297
   5	  91	 330
   6	  71	 412
   7	  72	 281
   8	  39	 307
   9	  15	 392
  10	  11	 286
  11	  23	 322
  12	  38	 432
  13	  33	 265
  14	  21	 303
  15	  39	 478
  16	  28	 255
  17	  38	 267
  18	  79	 406
  19	  27	 268
  20	  42	 326
  21	   4	 365
  22	  78	 255
  23	  53	 380
  24	  86	 407
  25	  74	 279
  26	  30	 314
  27	  34	 378
  28	  37	 293
  29	  35	 329
  30	  64	 362
  31	  84	 273
  32	  97	 365
  33	  64	 487
  34	  17	 252
  35	  17	 261
  36	  26	 422
  37	  68	 260
  38	  19	 318
  39	  26	 410
  40	  13	 266
  41	  61	 324
  42	  42	 410
  43	  95	 263
  44	  89	 327
  45	  59	 370
  46	  71	 260
  47	  83	 370
  48	  27	 454
  49	  99	 250
  50	   1	 296
  51	  68	 366
  52	  82	 281
  53	  74	 353
  54	  93	 476
  55	  28	 260
  56	  79	 264
  57	  70	 465
  58	  71	 256
  59	   4	 279
;

set E :=
   0	   7
   0	  11
   0	  13
   0	  17
   0	  18
   0	  19
   0	  20
   0	  22
   0	  24
   0	  29
   0	  34
   0	  35
   0	  36
   0	  50
   0	  51
   0	  53
   0	  58
   1	   3
   1	   6
   1	   9
   1	  18
   1	  22
   1	  27
   1	  31
   1	  35
   1	  37
   1	  39
   1	  42
   1	  43
   1	  44
   1	  46
   1	  52
   1	  56
   2	   4
   2	   6
   2	   9
   2	  13
   2	  14
   2	  16
   2	  17
   2	  19
   2	  20
   2	  23
   2	  27
   2	  31
   2	  32
   2	  33
   2	  34
   2	  40
   2	  41
   2	  46
   2	  50
   2	  57
   3	   9
   3	  10
   3	  11
   3	  12
   3	  13
   3	  15
   3	  19
   3	  22
   3	  23
   3	  24
   3	  34
   3	  36
   3	  37
   3	  41
   3	  46
   3	  49
   3	  52
   3	  54
   3	  57
   3	  58
   3	  59
   4	   6
   4	  12
   4	  15
   4	  16
   4	  17
   4	  24
   4	  25
   4	  27
   4	  28
   4	  31
   4	  34
   4	  42
   4	  44
   4	  47
   4	  48
   4	  49
   4	  54
   4	  57
   5	   6
   5	   8
   5	  14
   5	  18
   5	  21
   5	  23
   5	  28
   5	  32
   5	  39
   5	  47
   5	  49
   5	  50
   5	  53
   5	  56
   5	  58
   5	  59
   6	  13
   6	  14
   6	  15
   6	  23
   6	  26
   6	  32
   6	  35
   6	  37
   6	  41
   6	  45
   6	  48
   7	  11
   7	  15
   7	  16
   7	  21
   7	  24
   7	  25
   7	  32
   7	  41
   7	  43
   7	  48
   7	  49
   7	  51
   7	  52
   7	  53
   7	  55
   7	  56
   8	  10
   8	  13
   8	  16
   8	  19
   8	  23
   8	  25
   8	  27
   8	  30
   8	  31
   8	  32
   8	  33
   8	  43
   8	  45
   8	  48
   8	  49
   8	  53
   8	  55
   9	  12
   9	  15
   9	  16
   9	  18
   9	  19
   9	  20
   9	  22
   9	  25
   9	  26
   9	  28
   9	  31
   9	  36
   9	  37
   9	  43
   9	  44
   9	  46
   9	  47
   9	  51
   9	  56
  10	  14
  10	  16
  10	  17
  10	  20
  10	  32
  10	  33
  10	  36
  10	  39
  10	  43
  10	  45
  10	  55
  10	  58
  11	  19
  11	  25
  11	  27
  11	  29
  11	  31
  11	  37
  11	  40
  11	  49
  11	  53
  11	  56
  12	  17
  12	  21
  12	  25
  12	  27
  12	  29
  12	  30
  12	  31
  12	  32
  12	  36
  12	  38
  12	  39
  12	  40
  12	  45
  12	  49
  12	  53
  12	  55
  12	  56
  13	  17
  13	  25
  13	  27
  13	  30
  13	  32
  13	  35
  13	  43
  13	  45
  13	  46
  13	  47
  13	  48
  13	  51
  13	  53
  13	  59
  14	  17
  14	  18
  14	  29
  14	  32
  14	  37
  14	  38
  14	  39
  14	  43
  14	  44
  14	  55
  14	  58
  14	  59
  15	  16
  15	  19
  15	  20
  15	  24
  15	  33
  15	  35
  15	  37
  15	  40
  15	  43
  15	  46
  15	  47
  16	  17
  16	  19
  16	  21
  16	  22
  16	  30
  16	  34
  16	  36
  16	  37
  16	  42
  16	  44
  16	  45
  16	  48
  16	  50
  16	  54
  17	  18
  17	  19
  17	  20
  17	  23
  17	  33
  17	  39
  17	  44
  17	  46
  17	  47
  17	  49
  17	  57
  18	  21
  18	  22
  18	  24
  18	  28
  18	  30
  18	  31
  18	  32
  18	  34
  18	  39
  18	  40
  18	  43
  18	  44
  18	  45
  18	  54
  19	  21
  19	  22
  19	  26
  19	  30
  19	  39
  19	  41
  19	  42
  19	  47
  19	  49
  19	  54
  19	  56
  20	  21
  20	  22
  20	  26
  20	  37
  20	  40
  20	  41
  20	  49
  21	  24
  21	  25
  21	  27
  21	  31
  21	  32
  21	  34
  21	  41
  21	  46
  21	  48
  21	  49
  21	  59
  22	  23
  22	  26
  22	  28
  22	  29
  22	  31
  22	  34
  22	  36
  22	  37
  22	  43
  22	  47
  22	  48
  22	  52
  22	  59
  23	  28
  23	  30
  23	  39
  23	  40
  23	  43
  23	  46
  23	  50
  23	  51
  23	  52
  23	  54
  23	  59
  24	  27
  24	  28
  24	  32
  24	  34
  24	  35
  24	  43
  24	  48
  24	  51
  24	  56
  25	  27
  25	  39
  25	  42
  25	  47
  25	  49
  25	  51
  25	  52
  25	  55
  25	  56
  26	  27
  26	  32
  26	  35
  26	  42
  26	  44
  26	  45
  26	  48
  26	  51
  26	  52
  26	  54
  26	  57
  26	  59
  27	  28
  27	  30
  27	  35
  27	  36
  27	  38
  27	  41
  27	  46
  27	  49
  27	  50
  27	  53
  27	  54
  27	  56
  28	  30
  28	  32
  28	  33
  28	  34
  28	  38
  28	  42
  28	  43
  28	  44
  28	  46
  28	  47
  28	  51
  28	  55
  28	  58
  29	  37
  29	  39
  29	  45
  29	  51
  29	  54
  29	  57
  29	  58
  30	  31
  30	  33
  30	  38
  30	  40
  30	  41
  30	  43
  30	  46
  30	  48
  30	  52
  30	  55
  30	  57
  31	  39
  31	  46
  31	  47
  31	  49
  31	  52
  31	  57
  32	  34
  32	  37
  32	  39
  32	  40
  32	  46
  32	  50
  32	  51
  32	  53
  32	  55
  32	  56
  32	  59
  33	  36
  33	  38
  33	  39
  33	  42
  33	  44
  33	  46
  33	  52
  33	  55
  33	  57
  33	  58
  34	  35
  34	  39
  34	  44
  34	  49
  34	  55
  34	  57
  34	  59
  35	  36
  35	  37
  35	  46
  35	  52
  35	  53
  35	  58
  36	  40
  36	  43
  36	  48
  36	  50
  36	  57
  36	  58
  37	  38
  37	  40
  37	  44
  37	  45
  37	  46
  37	  48
  37	  54
  38	  42
  38	  43
  38	  51
  38	  53
  38	  55
  38	  57
  39	  40
  39	  42
  39	  43
  39	  44
  39	  57
  39	  58
  39	  59
  40	  42
  40	  51
  40	  53
  40	  54
  40	  55
  40	  58
  41	  42
  41	  44
  41	  45
  41	  46
  41	  52
  41	  56
  42	  46
  42	  48
  42	  51
  42	  55
  42	  57
  43	  47
  43	  48
  43	  51
  43	  53
  43	  54
  43	  56
  44	  51
  44	  54
  44	  58
  44	  59
  45	  50
  45	  55
  45	  56
  45	  58
  46	  48
  47	  48
  47	  50
  47	  52
  47	  55
  47	  56
  47	  59
  48	  49
  48	  54
  48	  56
  48	  57
  48	  58
  49	  54
  49	  55
  49	  57
  50	  51
  50	  53
  50	  54
  50	  56
  50	  58
  50	  59
  51	  55
  51	  56
  53	  54
  53	  55
  53	  57
  53	  59
  54	  56
  54	  57
  55	  57
  55	  58
;
